 $SYSTEM MEMDDI=400 MWORDS=200 $END
 $CONTRL DFTTYP=B3LYP RUNTYP=OPTIMIZE ICHARG=-2 MULT=1 $END
 $STATPT NSTEP=1000 $END
 $BASIS GBASIS=N31 NGAUSS=6 NDFUNC=1 $END
 $DATA
Cluster/6-31G
C1
H          1.0    17.570   54.807   49.625
C          6.0    16.907   55.427   49.022
H          1.0    16.277   55.988   49.712
C          6.0    16.045   54.627   48.050
S         16.0    15.055   55.715   46.973
H          1.0    17.501   56.104   48.407
H          1.0    16.685   54.010   47.419
H          1.0    15.363   53.987   48.610
H          1.0    14.510   55.240   43.632
C          6.0    14.057   55.891   42.884
H          1.0    14.738   56.212   42.096
C          6.0    13.390   57.099   43.544
S         16.0    14.531   58.159   44.482
H          1.0    13.233   55.368   42.399
H          1.0    12.929   57.724   42.779
H          1.0    12.625   56.757   44.241
H          1.0    16.411   61.056   44.504
C          6.0    16.609   61.520   45.470
H          1.0    17.679   61.684   45.594
C          6.0    16.075   60.662   46.631
S         16.0    17.056   59.153   47.047
H          1.0    16.092   62.478   45.526
H          1.0    16.044   61.261   47.541
H          1.0    15.071   60.311   46.392
H          1.0    20.413   58.377   45.988
C          6.0    20.622   57.804   45.085
H          1.0    21.357   58.338   44.482
C          6.0    19.340   57.582   44.265
S         16.0    18.138   56.425   45.000
H          1.0    21.016   56.825   45.358
H          1.0    18.819   58.531   44.140
H          1.0    19.599   57.179   43.286
Zn        30.0    16.200   57.412   45.833
 $END
