 $SYSTEM MEMDDI=400 MWORDS=200 $END
 $CONTRL DFTTYP=B3LYP ICHARG=-2 MULT=1 $END
 $ELPOT IEPOT=1 WHERE=PDC $END
 $PDC PTSEL=CONNOLLY CONSTR=NONE $END
 $BASIS GBASIS=N31 NGAUSS=6 NDFUNC=1 $END
 $DATA
Cluster/6-31G(d)
C1
H          1.0    19.368   53.242   51.265
C          6.0    19.778   54.251   51.212
C          6.0    18.904   55.134   50.319
O          8.0    19.264   56.288   50.038
H          1.0    20.809   54.225   50.860
H          1.0    19.813   54.682   52.212
N          7.0    17.791   54.601   49.826
C          6.0    16.907   55.427   49.022
C          6.0    16.024   56.213   49.989
O          8.0    15.317   55.653   50.829
C          6.0    16.045   54.627   48.050
S         16.0    15.055   55.715   46.973
H          1.0    17.572   53.633   50.014
H          1.0    17.501   56.104   48.407
H          1.0    16.685   54.010   47.419
H          1.0    15.363   53.987   48.610
N          7.0    16.101   57.533   49.881
C          6.0    15.329   58.396   50.755
H          1.0    14.278   58.431   50.468
H          1.0    15.754   59.400   50.751
H          1.0    16.703   57.945   49.183
H          1.0    15.390   58.026   51.778
H          1.0    15.071   51.842   44.355
C          6.0    15.550   52.786   44.613
C          6.0    14.921   53.743   43.570
O          8.0    14.653   53.316   42.449
H          1.0    16.615   52.670   44.410
H          1.0    15.306   53.049   45.642
N          7.0    14.670   55.011   43.896
C          6.0    14.057   55.891   42.884
C          6.0    15.017   56.344   41.773
O          8.0    14.613   56.524   40.620
C          6.0    13.390   57.099   43.544
S         16.0    14.531   58.159   44.482
H          1.0    14.900   55.347   44.820
H          1.0    13.233   55.368   42.399
H          1.0    12.929   57.724   42.779
H          1.0    12.625   56.757   44.241
N          7.0    16.287   56.546   42.123
C          6.0    17.289   56.993   41.151
C          6.0    17.319   58.499   40.930
O          8.0    18.013   58.971   40.040
H          1.0    16.575   56.390   43.078
H          1.0    18.282   56.701   41.492
H          1.0    17.088   56.533   40.183
N          7.0    16.606   59.235   41.784
C          6.0    16.476   60.687   41.721
C          6.0    16.819   61.400   43.030
O          8.0    17.517   62.407   42.995
H          1.0    15.456   60.949   41.440
H          1.0    16.108   58.786   42.540
H          1.0    17.146   61.079   40.956
N          7.0    16.342   60.894   44.168
C          6.0    16.609   61.520   45.470
C          6.0    18.102   61.749   45.643
O          8.0    18.909   61.120   44.947
C          6.0    16.075   60.662   46.631
S         16.0    17.056   59.153   47.047
H          1.0    15.779   60.056   44.148
H          1.0    16.092   62.478   45.526
H          1.0    16.044   61.261   47.541
H          1.0    15.071   60.311   46.392
N          7.0    18.482   62.620   46.575
C          6.0    19.906   62.921   46.785
C          6.0    20.759   61.711   47.188
O          8.0    21.928   61.589   46.784
H          1.0    20.044   63.745   47.485
H          1.0    17.787   63.080   47.145
H          1.0    20.334   63.317   45.864
N          7.0    20.160   60.808   47.963
C          6.0    20.858   59.609   48.410
C          6.0    21.270   58.767   47.232
O          8.0    22.399   58.286   47.174
H          1.0    19.202   60.950   48.251
H          1.0    21.749   59.894   48.969
H          1.0    20.200   59.022   49.051
N          7.0    20.342   58.574   46.298
C          6.0    20.622   57.804   45.085
C          6.0    21.647   58.549   44.244
O          8.0    22.493   57.919   43.615
C          6.0    19.340   57.582   44.265
S         16.0    18.138   56.425   45.000
H          1.0    19.418   58.964   46.420
H          1.0    21.016   56.825   45.358
H          1.0    18.819   58.531   44.140
H          1.0    19.599   57.179   43.286
N          7.0    21.559   59.881   44.217
C          6.0    22.501   60.696   43.447
H          1.0    23.514   60.542   43.819
H          1.0    22.224   61.750   43.480
H          1.0    20.829   60.346   44.737
H          1.0    22.456   60.409   42.396
Zn        30.0    16.200   57.412   45.833
 $END
