$RunGauss
%Chk=1A5T_sidechain_opt.chk
%Mem=3000MB
%NProcShared=2
#N B3LYP/6-31G* Geom=PrintInputOrient Integral=(Grid=UltraFine) Opt
SCF=XQC
 
CLR
 
-2  1
H          17.570   54.807   49.625
C          16.907   55.427   49.022
H          16.277   55.988   49.712
C          16.045   54.627   48.050
S          15.055   55.715   46.973
H          17.501   56.104   48.407
H          16.685   54.010   47.419
H          15.363   53.987   48.610
H          14.510   55.240   43.632
C          14.057   55.891   42.884
H          14.738   56.212   42.096
C          13.390   57.099   43.544
S          14.531   58.159   44.482
H          13.233   55.368   42.399
H          12.929   57.724   42.779
H          12.625   56.757   44.241
H          16.411   61.056   44.504
C          16.609   61.520   45.470
H          17.679   61.684   45.594
C          16.075   60.662   46.631
S          17.056   59.153   47.047
H          16.092   62.478   45.526
H          16.044   61.261   47.541
H          15.071   60.311   46.392
H          20.413   58.377   45.988
C          20.622   57.804   45.085
H          21.357   58.338   44.482
C          19.340   57.582   44.265
S          18.138   56.425   45.000
H          21.016   56.825   45.358
H          18.819   58.531   44.140
H          19.599   57.179   43.286
Zn         16.200   57.412   45.833
 
 
